NAME: cum90.tsp
TYPE: TSP
COMMENT: User-generated TSP file
DIMENSION: 90
EDGE_WEIGHT_TYPE: EUC_2D
NODE_COORD_SECTION
1 2.0 72.0
2 21.0 41.0
3 56.0 41.0
4 43.0 34.0
5 24.0 15.0
6 81.0 52.0
7 27.0 79.0
8 83.0 15.0
9 82.0 77.0
10 34.0 35.0
11 31.0 82.0
12 47.0 23.0
13 62.0 87.0
14 74.0 32.0
15 82.0 6.0
16 47.0 53.0
17 62.0 21.0
18 6.0 15.0
19 62.0 1.0
20 32.0 42.0
21 63.0 15.0
22 62.0 69.0
23 18.0 45.0
24 40.0 24.0
25 76.0 45.0
26 9.0 35.0
27 86.0 17.0
28 55.0 58.0
29 55.0 15.0
30 75.0 13.0
31 88.0 1.0
32 60.0 45.0
33 69.0 90.0
34 26.0 76.0
35 15.0 38.0
36 71.0 66.0
37 76.0 29.0
38 64.0 77.0
39 85.0 68.0
40 62.0 11.0
41 30.0 74.0
42 37.0 12.0
43 33.0 4.0
44 4.0 85.0
45 15.0 35.0
46 57.0 72.0
47 41.0 84.0
48 31.0 34.0
49 19.0 42.0
50 10.0 5.0
51 60.0 62.0
52 85.0 25.0
53 37.0 63.0
54 69.0 25.0
55 8.0 29.0
56 52.0 45.0
57 79.0 71.0
58 53.0 70.0
59 58.0 64.0
60 26.0 66.0
61 3.0 67.0
62 84.0 45.0
63 83.0 9.0
64 32.0 88.0
65 67.0 84.0
66 24.0 77.0
67 49.0 41.0
68 6.0 34.0
69 74.0 43.0
70 69.0 66.0
71 16.0 86.0
72 46.0 67.0
73 23.0 61.0
74 43.0 88.0
75 8.0 89.0
76 16.0 67.0
77 51.0 78.0
78 12.0 34.0
79 51.0 80.0
80 53.0 48.0
81 1.0 30.0
82 26.0 52.0
83 24.0 68.0
84 57.0 32.0
85 35.0 26.0
86 29.0 41.0
87 76.0 66.0
88 8.0 49.0
89 51.0 5.0
90 58.0 62.0
EOF





